p wcnf 156 185 186 
1 47 147 0 
1 89 -20 0 
1 152 133 0 
1 -154 84 0 
1 -19 -88 0 
1 13 -34 0 
1 17 77 0 
1 38 11 0 
1 -141 -153 0 
1 42 14 0 
1 -118 -10 0 
1 156 142 0 
1 -141 93 0 
1 149 -83 0 
1 -151 -7 0 
1 77 145 0 
1 -106 91 0 
1 -82 -80 0 
1 -105 147 0 
1 99 3 0 
1 -75 156 0 
1 108 138 0 
1 37 50 0 
1 143 51 0 
1 -37 -136 0 
1 -30 89 0 
1 -41 -99 0 
1 -142 -122 0 
1 -81 41 0 
1 -132 1 0 
1 -13 -124 0 
1 -3 35 0 
1 -62 145 0 
1 99 -75 0 
1 136 42 0 
1 -69 113 0 
1 93 124 0 
1 33 109 0 
1 75 154 0 
1 -54 18 0 
1 -89 -155 0 
1 -67 127 0 
1 51 -121 0 
1 -102 -57 0 
1 -67 -54 0 
1 -85 -46 0 
1 -111 100 0 
1 -70 -68 0 
1 -127 -61 0 
1 -121 72 0 
1 -12 95 0 
1 -14 52 0 
1 -10 -67 0 
1 -61 27 0 
1 -100 -85 0 
1 38 -9 0 
1 114 88 0 
1 -60 -148 0 
1 98 -108 0 
1 -111 -9 0 
1 43 144 0 
1 -1 -121 0 
1 -76 123 0 
1 -119 -89 0 
1 100 65 0 
1 -63 -24 0 
1 75 74 0 
1 -20 29 0 
1 -77 86 0 
1 14 103 0 
1 -46 -10 0 
1 -144 -94 0 
1 3 145 0 
1 89 107 0 
1 145 32 0 
1 77 -90 0 
1 21 -43 0 
1 -100 -17 0 
1 -123 -91 0 
1 1 95 0 
1 -99 24 0 
1 -38 126 0 
1 -119 -52 0 
1 99 150 0 
1 64 -17 0 
1 115 -41 0 
1 -54 -98 0 
1 -115 22 0 
1 146 -48 0 
1 39 -103 0 
1 -4 21 0 
1 -66 113 0 
1 -28 57 0 
1 136 -70 0 
1 130 91 0 
1 -41 -36 0 
1 93 -34 0 
1 -74 -63 0 
1 53 -38 0 
1 -110 -92 0 
1 41 -143 0 
1 13 143 0 
1 -110 34 0 
1 -129 -103 0 
1 114 -28 0 
1 142 147 0 
1 -13 90 0 
1 85 -90 0 
1 111 -53 0 
1 89 150 0 
1 28 24 0 
1 75 -59 0 
1 -155 -144 0 
1 -32 -16 0 
1 78 54 0 
1 99 73 0 
1 -83 -90 0 
1 -122 59 0 
1 -39 122 0 
1 -107 -140 0 
1 -92 57 0 
1 148 138 0 
1 137 96 0 
1 -67 144 0 
1 -109 -87 0 
1 65 122 0 
1 -70 31 0 
1 122 50 0 
1 -144 -82 0 
1 -90 102 0 
1 -53 137 0 
1 138 142 0 
1 -94 128 0 
1 29 131 0 
1 -139 -127 0 
1 154 -51 0 
1 -5 117 0 
1 20 -5 0 
1 87 82 0 
1 13 71 0 
1 -57 -110 0 
1 69 1 0 
1 -101 87 0 
1 140 -85 0 
1 -51 -16 0 
1 26 62 0 
1 -107 -9 0 
1 1 -145 0 
1 33 -8 0 
1 99 -84 0 
1 -131 -37 0 
1 -151 123 0 
1 120 -146 0 
1 -104 125 0 
1 -88 -99 0 
1 150 -94 0 
1 88 -94 0 
1 119 -22 0 
1 -7 154 0 
1 -120 65 0 
1 -46 -92 0 
1 -14 100 0 
1 -91 -54 0 
1 -67 76 0 
1 130 128 0 
1 62 8 0 
1 -62 3 0 
1 54 -69 0 
1 -141 -41 0 
1 109 -51 0 
1 -129 -136 0 
1 10 149 0 
1 -152 7 0 
1 -17 151 0 
1 -58 -119 0 
1 -122 -9 0 
1 129 -112 0 
1 42 -81 0 
1 -129 -117 0 
1 28 -71 0 
1 144 126 0 
1 -103 51 0 
1 10 129 0 
1 -115 105 0 
1 21 140 0 
